objective value:                      1.4892650974544
x(0,2,1)                                            1 	(obj:0)
x(1,7,0)                                            1 	(obj:0)
x(2,8,1)                                            1 	(obj:0)
x(3,11,0)                                           1 	(obj:0)
x(4,3,0)                                            1 	(obj:0)
x(7,4,0)                                            1 	(obj:0)
x(8,10,1)                                           1 	(obj:0)
x(10,0,1)                                           1 	(obj:0)
x(11,1,0)                                           1 	(obj:0)
xc(0,9)                                             1 	(obj:0)
xc(4,8)                                             1 	(obj:0)
xc(7,3)                                             1 	(obj:0)
u(0,0)                                1.4892650974544 	(obj:0)
u(1,1)                                1.4892650974544 	(obj:0)
u(2,1)                              0.701519746342699 	(obj:0)
u(3,0)                                1.3108911191574 	(obj:0)
u(3,1)                                1.4892650974544 	(obj:0)
u(4,0)                                0.6757805913997 	(obj:0)
u(5,1)                                1.4892650974544 	(obj:0)
u(6,0)                                1.4892650974544 	(obj:0)
u(7,0)                                0.1211525519718 	(obj:0)
u(8,0)                                1.4892650974544 	(obj:0)
u(8,1)                                1.1900467712547 	(obj:0)
u(9,1)                                1.4892650974544 	(obj:0)
u(10,0)                               1.4892650974544 	(obj:0)
u(10,1)                               1.4892650974544 	(obj:0)
u(11,0)                               1.4892650974544 	(obj:0)
u(11,1)                               1.4892650974544 	(obj:0)
u(12,0)                               1.4892650974544 	(obj:0)
u(12,1)                               1.4892650974544 	(obj:0)
u(13,0)                               1.4892650974544 	(obj:0)
u(13,1)                               1.4892650974544 	(obj:0)
u(14,0)                               1.4892650974544 	(obj:0)
u(14,1)                               1.4892650974544 	(obj:0)
u(15,0)                               1.4892650974544 	(obj:0)
u(15,1)                               1.4892650974544 	(obj:0)
u(16,0)                               1.4892650974544 	(obj:0)
u(16,1)                               1.4892650974544 	(obj:0)
u(17,0)                               1.4892650974544 	(obj:0)
u(17,1)                               1.4892650974544 	(obj:0)
u(18,0)                               1.4892650974544 	(obj:0)
u(18,1)                               1.4892650974544 	(obj:0)
u(19,0)                               1.4892650974544 	(obj:0)
u(19,1)                               1.4892650974544 	(obj:0)
f(0,2,0)                                            1 	(obj:0)
f(0,9,0)                                            1 	(obj:0)
f(0,9,1)                                            1 	(obj:0)
f(0,9,2)                                            1 	(obj:0)
f(0,9,3)                                            1 	(obj:0)
f(0,9,4)                                            1 	(obj:0)
f(1,7,0)                                            1 	(obj:0)
f(1,7,1)                                            1 	(obj:0)
f(1,7,3)                                            1 	(obj:0)
f(1,7,4)                                            1 	(obj:0)
f(2,8,0)                                            1 	(obj:0)
f(2,8,2)                                            1 	(obj:0)
f(3,11,0)                                           1 	(obj:0)
f(3,11,3)                                           1 	(obj:0)
f(3,11,4)                                           1 	(obj:0)
f(4,3,4)                                            1 	(obj:0)
f(4,8,1)                                            1 	(obj:0)
f(4,8,3)                                            1 	(obj:0)
f(4,8,4)                                            1 	(obj:0)
f(7,3,0)                                            1 	(obj:0)
f(7,4,1)                                            1 	(obj:0)
f(7,4,3)                                            1 	(obj:0)
f(7,4,4)                                            1 	(obj:0)
f(8,10,0)                                           1 	(obj:0)
f(8,10,1)                                           1 	(obj:0)
f(8,10,2)                                           1 	(obj:0)
f(8,10,3)                                           1 	(obj:0)
f(8,10,4)                                           1 	(obj:0)
f(10,0,0)                                           1 	(obj:0)
f(10,0,1)                                           1 	(obj:0)
f(10,0,2)                                           1 	(obj:0)
f(10,0,3)                                           1 	(obj:0)
f(10,0,4)                                           1 	(obj:0)
f(11,1,0)                                           1 	(obj:0)
f(11,1,3)                                           1 	(obj:0)
f(11,1,4)                                           1 	(obj:0)
z_r(0,)                               1.4892650974544 	(obj:0)
z_r(1,)                               1.4892650974544 	(obj:0)
z                                     1.4892650974544 	(obj:1)
